16
charge=0 multiplicity=1
C       -0.49585509       1.40407233      -0.54807192
C       -1.33241733       0.60940445       0.17189710
C       -1.23680808      -0.80656267       0.15730334
C       -0.30519078      -1.46406670      -0.58189815
C        1.49586757       0.78762494       0.37626670
C        1.57064300      -0.56433543       0.43305254
H       -0.51879681       2.47756711      -0.41448412
H       -0.04350299       1.07261146      -1.47110877
H       -1.94590120       1.05523702       0.94944692
H       -1.79166344      -1.34992864       0.91620996
H        0.11555344      -1.03960794      -1.48144581
H       -0.17970339      -2.53427718      -0.48006130
H        1.99672716       1.33539939      -0.40933400
H        1.20555297       1.36645900       1.24131325
H        2.13509245      -1.12481013      -0.29818166
H        1.30540060      -1.09815419       1.33434243
