19
charge=2 multiplicity=5
Fe    0.000000    0.000000    0.000000
O     2.120000    0.000000    0.000000
H     2.680000    0.760000    0.000000
H     2.680000   -0.760000    0.000000
O    -2.120000    0.000000    0.000000
H    -2.680000    0.760000    0.000000
H    -2.680000   -0.760000    0.000000
O     0.000000    2.120000    0.000000
H     0.760000    2.680000    0.000000
H    -0.760000    2.680000    0.000000
O     0.000000   -2.120000    0.000000
H     0.760000   -2.680000    0.000000
H    -0.760000   -2.680000    0.000000
O     0.000000    0.000000    2.120000
H     0.760000    0.000000    2.680000
H    -0.760000    0.000000    2.680000
O     0.000000    0.000000   -2.120000
H     0.760000    0.000000   -2.680000
H    -0.760000    0.000000   -2.680000