16
charge=0 multiplicity=1
C         -0.97534        1.45704       -0.61560
C         -1.77438        0.63663        0.07869
C         -1.67146       -0.84531        0.08609
C         -0.76615       -1.55411       -0.60094
C          2.33414        0.80369        0.52765
C          2.43589       -0.52315        0.53431
H         -1.12946        2.52963       -0.55625
H         -0.16992        1.09744       -1.24315
H         -2.55860        1.08185        0.68356
H         -2.38675       -1.38876        0.69591
H         -0.01804       -1.09271       -1.23267
H         -0.77043       -2.63705       -0.53084
H          2.65465        1.37197       -0.33946
H          1.92857        1.32509        1.38849
H          2.83992       -1.04454       -0.32734
H          2.11387       -1.09166        1.40062
16
charge=0 multiplicity=1
C         -0.20270        1.38210       -0.33821
C         -1.32113        0.56975        0.25581
C         -1.22642       -0.76907        0.17429
C          0.02010       -1.36335       -0.44828
C          1.17057        0.85535        0.14651
C          1.21805       -0.70037        0.25663
H         -0.31656        2.47360       -0.16929
H         -0.25392        1.21178       -1.43650
H         -2.16152        1.04386        0.75258
H         -1.98870       -1.40493        0.61328
H          0.05817       -1.13714       -1.53588
H          0.03040       -2.46604       -0.31639
H          1.92936        1.22251       -0.57803
H          1.43219        1.27253        1.14328
H          2.19964       -1.09112       -0.08622
H          1.12015       -0.97143        1.33264
